nNurses = 130;
nHours = 39;
minHours = 10;
maxHours = 15;
maxConsec = 15;
maxPresence = 17;
demand = [37, 35, 38, 37, 35, 30, 31, 29, 34, 32, 31, 27, 29, 30, 26, 21, 26, 22, 21, 18, 14, 10, 8, 9, 14, 19, 14, 10, 13, 10, 8, 9, 7, 12, 9, 12, 11, 16, 18];
